32      4       
12      19      15      16      
0       0       0       0       0       1       2       
9       1       1       1       2       1       3       
4       2       5       3       5       2       4       8       
5       1       1       3       4       1       5       
6       1       8       7       1       2       6       7       
4       9       1       6       5       2       9       12      
5       1       7       1       5       1       10      
10      1       8       2       1       1       9       
4       3       6       6       8       2       11      13      
3       5       1       5       1       2       11      13      
4       1       8       2       1       3       14      15      17      
7       9       5       1       1       3       14      15      17      
5       6       6       6       11      1       14      
2       5       1       1       1       3       16      18      24      
5       4       12      8       8       2       16      24      
3       8       2       2       12      3       19      20      22      
10      1       13      1       13      3       19      20      23      
5       1       3       7       9       3       20      22      23      
10      6       10      10      4       1       21      
5       1       6       6       1       1       25      
8       1       1       7       7       1       25      
5       12      1       6       3       1       25      
5       4       1       11      2       1       25      
3       1       6       1       1       1       25      
1       6       14      6       9       2       26      27      
1       3       13      1       5       2       28      29      
4       5       1       1       5       1       28      
2       7       5       1       1       2       30      31      
9       1       2       10      4       1       30      
6       1       16      1       11      1       32      
8       1       7       12      3       1       32      
0       0       0       0       0       0       
